Maximize
 obj: 241977 x0 + 208716 x1 + 188228 x2 + 78030 x3 + 78405 x4 + 460701 x5 + 684389 x6 + 513457 x7 + 338631 x8 + 362605 x9 + 262610 x10 + 361653 x11 + 409370 x12 + 398444 x13 + 306707 x14 + 384738 x15 + 367175 x16 + 16661 x17 + 366840 x18 + 421694 x19 + 407564 x20 + 109931 x21 + 222143 x22 + 177388 x23 + 123688 x24 + 263737 x25 + 316577 x26 + 255339 x27 
Subject To
 c1:  x27  <= 1
 c2:  x14 +  x15  <= 1
 c3:  x7  <= 1
 c4:  x2 +  x9 +  x10  <= 1
 c5:  x13  <= 1
 c6:  x7  <= 1
 c7:  x0 +  x1 +  x2  <= 1
 c8:  x5 +  x6 +  x7  <= 1
 c9:  x8 +  x9 +  x10  <= 1
 c10:  x11 +  x12 +  x13  <= 1
 c11:  x18  <= 1
 c12:  x13 +  x25  <= 1
 c13:  x4  <= 1
 c14:  x6 +  x12 +  x25 +  x26  <= 1
 c15:  x0 +  x2 +  x5 +  x7 +  x20  <= 1
 c16:  x18 +  x19 +  x20  <= 1
 c17:  x0 +  x1 +  x11 +  x16  <= 1
 c18:  x1 +  x13 +  x19  <= 1
 c19:  x10  <= 1
 c20:  x26  <= 1
 c21:  x20  <= 1
 c22:  x11 +  x15  <= 1
 c23:  x24  <= 1
 c24:  x7  <= 1
 c25:  x3  <= 1
 c26:  x5 +  x12 +  x18  <= 1
 c27:  x26  <= 1
 c28:  x18 +  x19 +  x20 +  x27  <= 1
 c29:  x22 +  x24  <= 1
 c30:  x5  <= 1
 c31:  x7 +  x23 +  x27  <= 1
 c32:  x25  <= 1
 c33:  x12 +  x15  <= 1
 c34:  x25 +  x26 +  x27  <= 1
 c35:  x22 +  x23 +  x24  <= 1
 c36:  x18 +  x19 +  x20  <= 1
 c37:  x14 +  x15 +  x16  <= 1
 c38:  x11 +  x12 +  x25 +  x27  <= 1
 c39:  x5 +  x6 +  x14  <= 1
 c40:  x8 +  x10  <= 1
 c41:  x5 +  x6 +  x26  <= 1
 c42:  x6 +  x7 +  x10  <= 1
 c43:  x9  <= 1
 c44:  x14 +  x16  <= 1
 c45:  x5 +  x16  <= 1
 c46:  x8 +  x14 +  x15  <= 1
 c47:  x6  <= 1
 c48:  x8  <= 1
 c49:  x9  <= 1
 c50:  x6 +  x8 +  x9  <= 1
 c51:  x17  <= 1
 c52:  x3  <= 1
 c53:  x11 +  x13 +  x19 +  x21  <= 1
 c54:  x16 +  x22 +  x23  <= 1
Bounds
 0 <= x0 <= 1
 0 <= x1 <= 1
 0 <= x2 <= 1
 0 <= x3 <= 1
 0 <= x4 <= 1
 0 <= x5 <= 1
 0 <= x6 <= 1
 0 <= x7 <= 1
 0 <= x8 <= 1
 0 <= x9 <= 1
 0 <= x10 <= 1
 0 <= x11 <= 1
 0 <= x12 <= 1
 0 <= x13 <= 1
 0 <= x14 <= 1
 0 <= x15 <= 1
 0 <= x16 <= 1
 0 <= x17 <= 1
 0 <= x18 <= 1
 0 <= x19 <= 1
 0 <= x20 <= 1
 0 <= x21 <= 1
 0 <= x22 <= 1
 0 <= x23 <= 1
 0 <= x24 <= 1
 0 <= x25 <= 1
 0 <= x26 <= 1
 0 <= x27 <= 1
End